55 66 
51 4 
92 91 
77 43 
9 31 
91 12 
30 39 
56 70 
34 13 
3 78 
97 25 
42 61 
21 70 
62 9 
38 60 
5 93 
26 56 
49 70 
99 26 
65 60 
9 56 
73 40 
95 81 
62 82 
46 65 
60 44 
43 2 
5 16 
72 20 
26 62 
